
;this file is automatically generated: Thu Jan 02 16:54:47 GMT 2020

;declarations generated

(declare-fun oclExcludes ( Int Int) Bool)
(declare-fun class8_Class8IntAttr4 ( Int) Int)
(declare-fun class8_Class8IntAttr3 ( Int) Int)
(declare-fun Cardinality ( Int) Int)
(declare-fun type_5e6cdc02_c8b9_43fd_a165_6d70cc1051a1_Class19 ( Int) Bool)
(declare-fun type_5e6cdc02_c8b9_43fd_a165_6d70cc1051a1_Class26 ( Int) Bool)
(declare-fun obj_3f7dafe7_b8ef_4c1a_b575_a67caa62ae9c ( Int) Int)
(declare-fun type_5e6cdc02_c8b9_43fd_a165_6d70cc1051a1_Class48 ( Int) Bool)
(declare-fun type_5e6cdc02_c8b9_43fd_a165_6d70cc1051a1_Class46 ( Int) Bool)
(declare-fun class8_Class8BoolAttr2 ( Int) Bool)
(declare-fun class8_Class8BoolAttr0 ( Int) Bool)
(declare-fun oclSelect ( Int Bool) Int)
(declare-fun type_5e6cdc02_c8b9_43fd_a165_6d70cc1051a1_Class5 ( Int) Bool)
(declare-fun type_5e6cdc02_c8b9_43fd_a165_6d70cc1051a1_Class2 ( Int) Bool)
(declare-fun type_5e6cdc02_c8b9_43fd_a165_6d70cc1051a1_Class8 ( Int) Bool)
(declare-fun Enum0 ( Int) Int)
(declare-fun Enum1 ( Int) Int)
(declare-fun Enum2 ( Int) Int)
(declare-fun container_ ( Int) Int)
(declare-fun oclIncludes ( Int Int) Bool)
(declare-fun ObjAt ( Int Int) Int)

;formula(s) generated
(assert (! (forall ((c8_2 Int)(c8_1 Int)) (=> (and (and (and (and (and (and (and ( type_5e6cdc02_c8b9_43fd_a165_6d70cc1051a1_Class8 c8_1 )  ( type_5e6cdc02_c8b9_43fd_a165_6d70cc1051a1_Class46 c8_1 ) ) ( type_5e6cdc02_c8b9_43fd_a165_6d70cc1051a1_Class26 c8_1 ) ) ( type_5e6cdc02_c8b9_43fd_a165_6d70cc1051a1_Class48 c8_1 ) ) ( type_5e6cdc02_c8b9_43fd_a165_6d70cc1051a1_Class5 c8_1 ) ) ( type_5e6cdc02_c8b9_43fd_a165_6d70cc1051a1_Class19 c8_1 ) ) ( type_5e6cdc02_c8b9_43fd_a165_6d70cc1051a1_Class2 c8_1 ) ) (and (and (and (and (and (and ( type_5e6cdc02_c8b9_43fd_a165_6d70cc1051a1_Class8 c8_2 )  ( type_5e6cdc02_c8b9_43fd_a165_6d70cc1051a1_Class46 c8_2 ) ) ( type_5e6cdc02_c8b9_43fd_a165_6d70cc1051a1_Class26 c8_2 ) ) ( type_5e6cdc02_c8b9_43fd_a165_6d70cc1051a1_Class48 c8_2 ) ) ( type_5e6cdc02_c8b9_43fd_a165_6d70cc1051a1_Class5 c8_2 ) ) ( type_5e6cdc02_c8b9_43fd_a165_6d70cc1051a1_Class19 c8_2 ) ) ( type_5e6cdc02_c8b9_43fd_a165_6d70cc1051a1_Class2 c8_2 ) )) (= ( class8_Class8IntAttr3 ( obj_3f7dafe7_b8ef_4c1a_b575_a67caa62ae9c c8_1 )  )  ( class8_Class8IntAttr4 ( obj_3f7dafe7_b8ef_4c1a_b575_a67caa62ae9c c8_2 )  ) ))):named l0))
(assert (! (or (forall ((v Int)) (=> (and (and (and (and (and (and ( type_5e6cdc02_c8b9_43fd_a165_6d70cc1051a1_Class8 v )  ( type_5e6cdc02_c8b9_43fd_a165_6d70cc1051a1_Class46 v ) ) ( type_5e6cdc02_c8b9_43fd_a165_6d70cc1051a1_Class26 v ) ) ( type_5e6cdc02_c8b9_43fd_a165_6d70cc1051a1_Class48 v ) ) ( type_5e6cdc02_c8b9_43fd_a165_6d70cc1051a1_Class5 v ) ) ( type_5e6cdc02_c8b9_43fd_a165_6d70cc1051a1_Class19 v ) ) ( type_5e6cdc02_c8b9_43fd_a165_6d70cc1051a1_Class2 v ) ) (and ( class8_Class8BoolAttr2 ( obj_3f7dafe7_b8ef_4c1a_b575_a67caa62ae9c v )  )  (and (forall ((v Int)) (=> (and (and (and (and (and (and ( type_5e6cdc02_c8b9_43fd_a165_6d70cc1051a1_Class8 v )  ( type_5e6cdc02_c8b9_43fd_a165_6d70cc1051a1_Class46 v ) ) ( type_5e6cdc02_c8b9_43fd_a165_6d70cc1051a1_Class26 v ) ) ( type_5e6cdc02_c8b9_43fd_a165_6d70cc1051a1_Class48 v ) ) ( type_5e6cdc02_c8b9_43fd_a165_6d70cc1051a1_Class5 v ) ) ( type_5e6cdc02_c8b9_43fd_a165_6d70cc1051a1_Class19 v ) ) ( type_5e6cdc02_c8b9_43fd_a165_6d70cc1051a1_Class2 v ) ) (not ( class8_Class8BoolAttr0 ( obj_3f7dafe7_b8ef_4c1a_b575_a67caa62ae9c v )  )  ))) (forall ((v Int)) (=> (and (and (and (and (and (and ( type_5e6cdc02_c8b9_43fd_a165_6d70cc1051a1_Class8 v )  ( type_5e6cdc02_c8b9_43fd_a165_6d70cc1051a1_Class46 v ) ) ( type_5e6cdc02_c8b9_43fd_a165_6d70cc1051a1_Class26 v ) ) ( type_5e6cdc02_c8b9_43fd_a165_6d70cc1051a1_Class48 v ) ) ( type_5e6cdc02_c8b9_43fd_a165_6d70cc1051a1_Class5 v ) ) ( type_5e6cdc02_c8b9_43fd_a165_6d70cc1051a1_Class19 v ) ) ( type_5e6cdc02_c8b9_43fd_a165_6d70cc1051a1_Class2 v ) ) ( class8_Class8BoolAttr0 ( obj_3f7dafe7_b8ef_4c1a_b575_a67caa62ae9c v )  ) )))))) (forall ((c8_2 Int)(c8_1 Int)) (=> (and (and (and (and (and (and (and ( type_5e6cdc02_c8b9_43fd_a165_6d70cc1051a1_Class8 c8_1 )  ( type_5e6cdc02_c8b9_43fd_a165_6d70cc1051a1_Class46 c8_1 ) ) ( type_5e6cdc02_c8b9_43fd_a165_6d70cc1051a1_Class26 c8_1 ) ) ( type_5e6cdc02_c8b9_43fd_a165_6d70cc1051a1_Class48 c8_1 ) ) ( type_5e6cdc02_c8b9_43fd_a165_6d70cc1051a1_Class5 c8_1 ) ) ( type_5e6cdc02_c8b9_43fd_a165_6d70cc1051a1_Class19 c8_1 ) ) ( type_5e6cdc02_c8b9_43fd_a165_6d70cc1051a1_Class2 c8_1 ) ) (and (and (and (and (and (and ( type_5e6cdc02_c8b9_43fd_a165_6d70cc1051a1_Class8 c8_2 )  ( type_5e6cdc02_c8b9_43fd_a165_6d70cc1051a1_Class46 c8_2 ) ) ( type_5e6cdc02_c8b9_43fd_a165_6d70cc1051a1_Class26 c8_2 ) ) ( type_5e6cdc02_c8b9_43fd_a165_6d70cc1051a1_Class48 c8_2 ) ) ( type_5e6cdc02_c8b9_43fd_a165_6d70cc1051a1_Class5 c8_2 ) ) ( type_5e6cdc02_c8b9_43fd_a165_6d70cc1051a1_Class19 c8_2 ) ) ( type_5e6cdc02_c8b9_43fd_a165_6d70cc1051a1_Class2 c8_2 ) )) (>= ( class8_Class8IntAttr3 ( obj_3f7dafe7_b8ef_4c1a_b575_a67caa62ae9c c8_1 )  )  ( class8_Class8IntAttr4 ( obj_3f7dafe7_b8ef_4c1a_b575_a67caa62ae9c c8_2 )  ) )))):named l1))
(assert (! (or (forall ((v Int)) (=> (and (and (and (and (and (and ( type_5e6cdc02_c8b9_43fd_a165_6d70cc1051a1_Class8 v )  ( type_5e6cdc02_c8b9_43fd_a165_6d70cc1051a1_Class46 v ) ) ( type_5e6cdc02_c8b9_43fd_a165_6d70cc1051a1_Class26 v ) ) ( type_5e6cdc02_c8b9_43fd_a165_6d70cc1051a1_Class48 v ) ) ( type_5e6cdc02_c8b9_43fd_a165_6d70cc1051a1_Class5 v ) ) ( type_5e6cdc02_c8b9_43fd_a165_6d70cc1051a1_Class19 v ) ) ( type_5e6cdc02_c8b9_43fd_a165_6d70cc1051a1_Class2 v ) ) ( class8_Class8BoolAttr2 ( obj_3f7dafe7_b8ef_4c1a_b575_a67caa62ae9c v )  ) )) (forall ((v Int)) (=> (and (and (and (and (and (and ( type_5e6cdc02_c8b9_43fd_a165_6d70cc1051a1_Class8 v )  ( type_5e6cdc02_c8b9_43fd_a165_6d70cc1051a1_Class46 v ) ) ( type_5e6cdc02_c8b9_43fd_a165_6d70cc1051a1_Class26 v ) ) ( type_5e6cdc02_c8b9_43fd_a165_6d70cc1051a1_Class48 v ) ) ( type_5e6cdc02_c8b9_43fd_a165_6d70cc1051a1_Class5 v ) ) ( type_5e6cdc02_c8b9_43fd_a165_6d70cc1051a1_Class19 v ) ) ( type_5e6cdc02_c8b9_43fd_a165_6d70cc1051a1_Class2 v ) ) ( class8_Class8BoolAttr0 ( obj_3f7dafe7_b8ef_4c1a_b575_a67caa62ae9c v )  ) ))):named l2))
(assert (! (forall ((v Int)) (=> (and (and (and (and (and (and ( type_5e6cdc02_c8b9_43fd_a165_6d70cc1051a1_Class8 v )  ( type_5e6cdc02_c8b9_43fd_a165_6d70cc1051a1_Class46 v ) ) ( type_5e6cdc02_c8b9_43fd_a165_6d70cc1051a1_Class26 v ) ) ( type_5e6cdc02_c8b9_43fd_a165_6d70cc1051a1_Class48 v ) ) ( type_5e6cdc02_c8b9_43fd_a165_6d70cc1051a1_Class5 v ) ) ( type_5e6cdc02_c8b9_43fd_a165_6d70cc1051a1_Class19 v ) ) ( type_5e6cdc02_c8b9_43fd_a165_6d70cc1051a1_Class2 v ) ) (= ( class8_Class8IntAttr3 ( obj_3f7dafe7_b8ef_4c1a_b575_a67caa62ae9c v )  )  18))):named l3))
(assert (exists ((o Int)) (and (and (and (and (and (and ( type_5e6cdc02_c8b9_43fd_a165_6d70cc1051a1_Class8 ( obj_3f7dafe7_b8ef_4c1a_b575_a67caa62ae9c o )  )  ( type_5e6cdc02_c8b9_43fd_a165_6d70cc1051a1_Class46 ( obj_3f7dafe7_b8ef_4c1a_b575_a67caa62ae9c o )  ) ) ( type_5e6cdc02_c8b9_43fd_a165_6d70cc1051a1_Class26 ( obj_3f7dafe7_b8ef_4c1a_b575_a67caa62ae9c o )  ) ) ( type_5e6cdc02_c8b9_43fd_a165_6d70cc1051a1_Class48 ( obj_3f7dafe7_b8ef_4c1a_b575_a67caa62ae9c o )  ) ) ( type_5e6cdc02_c8b9_43fd_a165_6d70cc1051a1_Class5 ( obj_3f7dafe7_b8ef_4c1a_b575_a67caa62ae9c o )  ) ) ( type_5e6cdc02_c8b9_43fd_a165_6d70cc1051a1_Class19 ( obj_3f7dafe7_b8ef_4c1a_b575_a67caa62ae9c o )  ) ) ( type_5e6cdc02_c8b9_43fd_a165_6d70cc1051a1_Class2 ( obj_3f7dafe7_b8ef_4c1a_b575_a67caa62ae9c o )  ) )))

 ;end of formula 